NAME          featheredCube
*   Maximum: 60000 
*   Minimum: 0

ROWS
 L  0
 L  1
 L  2
 L  3
 L  4
 L  5
 L  6
 L  7
 L  8
 L  9
 L  10
 L  11
 L  12
 L  13
 L  14
 N  c
COLUMNS
    x0        0         1.             3         1.
    x0        4         -1.            6         1.
    x0        5         -1.            7         1.
    x0        8         -1.            9         -1.
    x0        10        1.
    x1        1         1.             3         -1.
    x1        4         1.             6         1.
    x1        5         -1.            11        1.
    x1        12        -1.            13        -1.
    x1        14        1.
    x2        2         1.             7         -1.
    x2        8         1.             9         -1.
    x2        10        1.             11        -1.
    x2        12        1.             13        -1.
    x2        14        1.
    x0        c         -150.
    x1        c         -100.
    x2        c         -50.
RHS
    b         0         200.           1         200.
    b         2         200.
    b         3         200.           4         200.
    b         6         400.           7         200.
    b         8         200.           10        400.
    b         11        200.           12        200.
    b         14        400.
ENDATA
 